; ./aeval/./multi-phase/s_split_38_000.smt2
(set-logic HORN)

(declare-fun |fail| ( ) Bool)
(declare-fun |inv| ( Int Int ) Bool)

(assert
  (forall ( (A Int) (B Int) ) 
    (=>
      (and
        (and (= B 0) (= A 50000))
      )
      (inv A B)
    )
  )
)
(assert
  (forall ( (A Int) (B Int) (C Int) (D Int) ) 
    (=>
      (and
        (inv A B)
        (and (= D (ite (>= B A) B (+ 1 B))) (= C (ite (>= B A) (+ 5 A) A)))
      )
      (inv C D)
    )
  )
)
(assert
  (forall ( (A Int) (B Int) ) 
    (=>
      (and
        (inv A B)
        (let ((a!1 (not (<= (+ A (* (- 1) B)) 5))))
  (and (not (<= B 50000)) a!1))
      )
      fail
    )
  )
)
(assert
  (forall ( (CHC_COMP_UNUSED Bool) ) 
    (=>
      (and
        fail
        true
      )
      false
    )
  )
)

(check-sat)
(exit)
